c colouring generated by benchmark framework
p edge 500 62624
v 1 50
v 2 46
v 3 24
v 4 12
v 5 8
v 6 9
v 7 35
v 8 50
v 9 0
v 10 33
v 11 59
v 12 21
v 13 64
v 14 8
v 15 1
v 16 12
v 17 44
v 18 15
v 19 9
v 20 50
v 21 34
v 22 32
v 23 57
v 24 30
v 25 45
v 26 44
v 27 1
v 28 8
v 29 39
v 30 25
v 31 26
v 32 24
v 33 26
v 34 2
v 35 2
v 36 27
v 37 20
v 38 24
v 39 23
v 40 11
v 41 7
v 42 27
v 43 64
v 44 40
v 45 9
v 46 41
v 47 38
v 48 51
v 49 60
v 50 36
v 51 10
v 52 22
v 53 32
v 54 15
v 55 57
v 56 55
v 57 3
v 58 44
v 59 56
v 60 59
v 61 27
v 62 40
v 63 45
v 64 56
v 65 34
v 66 5
v 67 28
v 68 20
v 69 58
v 70 45
v 71 16
v 72 53
v 73 11
v 74 37
v 75 55
v 76 20
v 77 2
v 78 11
v 79 30
v 80 10
v 81 4
v 82 51
v 83 56
v 84 8
v 85 7
v 86 1
v 87 36
v 88 68
v 89 13
v 90 15
v 91 5
v 92 59
v 93 52
v 94 61
v 95 45
v 96 26
v 97 63
v 98 62
v 99 13
v 100 23
v 101 26
v 102 6
v 103 27
v 104 25
v 105 14
v 106 34
v 107 38
v 108 15
v 109 62
v 110 53
v 111 17
v 112 3
v 113 17
v 114 38
v 115 48
v 116 41
v 117 8
v 118 51
v 119 47
v 120 15
v 121 14
v 122 51
v 123 0
v 124 14
v 125 19
v 126 32
v 127 52
v 128 20
v 129 40
v 130 36
v 131 64
v 132 3
v 133 15
v 134 5
v 135 59
v 136 43
v 137 21
v 138 0
v 139 16
v 140 26
v 141 63
v 142 22
v 143 23
v 144 36
v 145 40
v 146 16
v 147 31
v 148 48
v 149 33
v 150 61
v 151 29
v 152 43
v 153 0
v 154 54
v 155 26
v 156 57
v 157 61
v 158 6
v 159 29
v 160 38
v 161 4
v 162 33
v 163 19
v 164 31
v 165 60
v 166 60
v 167 10
v 168 61
v 169 65
v 170 3
v 171 50
v 172 45
v 173 0
v 174 8
v 175 8
v 176 0
v 177 1
v 178 28
v 179 25
v 180 50
v 181 34
v 182 29
v 183 29
v 184 30
v 185 28
v 186 34
v 187 0
v 188 67
v 189 54
v 190 2
v 191 42
v 192 34
v 193 32
v 194 20
v 195 16
v 196 62
v 197 36
v 198 47
v 199 37
v 200 7
v 201 17
v 202 22
v 203 25
v 204 18
v 205 40
v 206 24
v 207 44
v 208 22
v 209 31
v 210 22
v 211 17
v 212 61
v 213 19
v 214 18
v 215 49
v 216 49
v 217 36
v 218 67
v 219 54
v 220 68
v 221 48
v 222 10
v 223 63
v 224 1
v 225 26
v 226 32
v 227 31
v 228 13
v 229 36
v 230 5
v 231 39
v 232 6
v 233 64
v 234 9
v 235 22
v 236 67
v 237 36
v 238 38
v 239 28
v 240 45
v 241 23
v 242 41
v 243 27
v 244 7
v 245 27
v 246 11
v 247 4
v 248 3
v 249 3
v 250 42
v 251 47
v 252 7
v 253 39
v 254 30
v 255 67
v 256 22
v 257 8
v 258 48
v 259 17
v 260 34
v 261 19
v 262 42
v 263 12
v 264 64
v 265 10
v 266 3
v 267 35
v 268 53
v 269 16
v 270 24
v 271 40
v 272 23
v 273 25
v 274 21
v 275 14
v 276 48
v 277 47
v 278 2
v 279 9
v 280 50
v 281 49
v 282 17
v 283 21
v 284 58
v 285 52
v 286 47
v 287 29
v 288 13
v 289 65
v 290 50
v 291 28
v 292 41
v 293 63
v 294 52
v 295 53
v 296 21
v 297 5
v 298 7
v 299 33
v 300 53
v 301 6
v 302 59
v 303 37
v 304 53
v 305 58
v 306 66
v 307 27
v 308 29
v 309 40
v 310 47
v 311 54
v 312 52
v 313 20
v 314 52
v 315 14
v 316 23
v 317 35
v 318 49
v 319 56
v 320 62
v 321 66
v 322 65
v 323 56
v 324 53
v 325 65
v 326 68
v 327 5
v 328 15
v 329 49
v 330 16
v 331 60
v 332 35
v 333 53
v 334 45
v 335 47
v 336 39
v 337 54
v 338 38
v 339 50
v 340 60
v 341 58
v 342 2
v 343 37
v 344 4
v 345 37
v 346 41
v 347 25
v 348 42
v 349 18
v 350 25
v 351 21
v 352 21
v 353 12
v 354 18
v 355 60
v 356 51
v 357 58
v 358 14
v 359 6
v 360 32
v 361 66
v 362 14
v 363 0
v 364 23
v 365 64
v 366 35
v 367 21
v 368 46
v 369 4
v 370 11
v 371 60
v 372 25
v 373 46
v 374 20
v 375 67
v 376 43
v 377 64
v 378 48
v 379 4
v 380 43
v 381 19
v 382 39
v 383 49
v 384 38
v 385 17
v 386 11
v 387 61
v 388 43
v 389 58
v 390 41
v 391 31
v 392 17
v 393 55
v 394 41
v 395 32
v 396 49
v 397 5
v 398 18
v 399 17
v 400 64
v 401 34
v 402 33
v 403 51
v 404 45
v 405 31
v 406 44
v 407 35
v 408 49
v 409 63
v 410 13
v 411 19
v 412 10
v 413 18
v 414 3
v 415 31
v 416 67
v 417 30
v 418 18
v 419 30
v 420 1
v 421 9
v 422 39
v 423 20
v 424 33
v 425 31
v 426 24
v 427 39
v 428 10
v 429 20
v 430 2
v 431 9
v 432 57
v 433 44
v 434 16
v 435 35
v 436 46
v 437 52
v 438 30
v 439 15
v 440 27
v 441 23
v 442 14
v 443 40
v 444 9
v 445 21
v 446 35
v 447 31
v 448 2
v 449 21
v 450 13
v 451 44
v 452 55
v 453 65
v 454 62
v 455 4
v 456 16
v 457 59
v 458 19
v 459 55
v 460 65
v 461 24
v 462 25
v 463 43
v 464 36
v 465 12
v 466 12
v 467 9
v 468 37
v 469 12
v 470 13
v 471 29
v 472 51
v 473 14
v 474 42
v 475 4
v 476 6
v 477 57
v 478 7
v 479 39
v 480 57
v 481 1
v 482 59
v 483 11
v 484 63
v 485 46
v 486 30
v 487 28
v 488 33
v 489 65
v 490 56
v 491 58
v 492 23
v 493 18
v 494 25
v 495 6
v 496 44
v 497 41
v 498 60
v 499 66
v 500 66
